NAME 
ROWS
 N  OBJ
 L  R0      
 L  R1      
 L  R2      
 E  R3      
 E  R4      
 E  R5      
 E  R6      
 E  R7      
 E  R8      
 E  R9      
 E  R10     
 E  R11     
 E  R12     
 E  R13     
 E  R14     
 E  R15     
 E  R16     
 E  R17     
 E  R18     
 E  R19     
 E  R20     
 E  R21     
 E  R22     
COLUMNS
    MARKER    'MARKER'                 'INTORG'
    I0(9)     OBJ       59
    I0(9)     R0        -174
    I0(9)     R1        -63
    I0(9)     R2        136
    I0(9)     R5        2
    I0(9)     R6        14
    I0(9)     R8        1
    I0(9)     R9        12
    I0(9)     R10       14
    I0(9)     R22       1
    I1(9)     OBJ       105
    I1(9)     R0        183
    I1(9)     R1        91
    I1(9)     R2        65
    I1(9)     R3        11
    I1(9)     R4        11
    I1(9)     R7        10
    I1(9)     R8        4
    I1(9)     R10       6
    I1(9)     R22       1
    I2(10)    OBJ       -27
    I2(10)    R0        181
    I2(10)    R1        26
    I2(10)    R2        127
    I2(10)    R3        9
    I2(10)    R4        17
    I2(10)    R5        3
    I2(10)    R6        19
    I2(10)    R7        10
    I2(10)    R9        7
    I2(10)    R22       1
    I3(6)     OBJ       168
    I3(6)     R0        -33
    I3(6)     R1        -192
    I3(6)     R2        -101
    I3(6)     R3        13
    I3(6)     R5        2
    I3(6)     R22       1
    I4(7)     OBJ       3
    I4(7)     R0        148
    I4(7)     R1        43
    I4(7)     R2        19
    I4(7)     R3        11
    I4(7)     R6        18
    I4(7)     R9        9
    I4(7)     R22       1
    I5(8)     OBJ       27
    I5(8)     R0        11
    I5(8)     R1        -130
    I5(8)     R2        84
    I5(8)     R4        10
    I5(8)     R5        7
    I5(8)     R8        14
    I5(8)     R9        17
    I5(8)     R22       1
    I6(9)     OBJ       -200
    I6(9)     R0        25
    I6(9)     R1        -92
    I6(9)     R2        -3
    I6(9)     R3        8
    I6(9)     R4        5
    I6(9)     R5        2
    I6(9)     R6        1
    I6(9)     R10       2
    I6(9)     R22       1
    I7(8)     OBJ       95
    I7(8)     R0        146
    I7(8)     R1        -49
    I7(8)     R2        95
    I7(8)     R4        -1
    I7(8)     R6        -1
    I7(8)     R8        8
    I7(8)     R9        4
    I7(8)     R22       1
    MARKER    'MARKER'                 'INTEND'
    C8(15)    OBJ       -1
    C8(15)    R0        3
    C8(15)    R2        6
    C8(15)    R3        7
    C8(15)    R4        8
    C8(15)    R5        12
    C8(15)    R6        19
    C8(15)    R7        11
    C8(15)    R8        15
    C8(15)    R11       18
    C8(15)    R12       16
    C8(15)    R14       5
    C8(15)    R16       16
    C8(15)    R17       6
    C8(15)    R18       17
    C8(15)    R20       4
    C9(14)    OBJ       3
    C9(14)    R0        -3
    C9(14)    R1        9
    C9(14)    R2        -10
    C9(14)    R3        11
    C9(14)    R6        3
    C9(14)    R8        1
    C9(14)    R10       4
    C9(14)    R11       10
    C9(14)    R12       12
    C9(14)    R13       13
    C9(14)    R15       17
    C9(14)    R16       12
    C9(14)    R19       14
    C9(14)    R20       12
    C10(15)   OBJ       -4
    C10(15)   R0        -2
    C10(15)   R1        -1
    C10(15)   R2        -7
    C10(15)   R4        -1
    C10(15)   R5        14
    C10(15)   R6        3
    C10(15)   R7        19
    C10(15)   R8        11
    C10(15)   R10       9
    C10(15)   R11       -1
    C10(15)   R14       11
    C10(15)   R15       4
    C10(15)   R17       19
    C10(15)   R18       6
    C10(15)   R21       7
    C11(9)    OBJ       -5
    C11(9)    R0        -9
    C11(9)    R2        6
    C11(9)    R4        15
    C11(9)    R5        13
    C11(9)    R6        2
    C11(9)    R8        13
    C11(9)    R12       16
    C11(9)    R15       16
    C11(9)    R21       3
    C12(8)    OBJ       -5
    C12(8)    R0        9
    C12(8)    R1        -3
    C12(8)    R2        1
    C12(8)    R3        7
    C12(8)    R9        6
    C12(8)    R10       5
    C12(8)    R17       4
    C12(8)    R20       13
    C13(12)   OBJ       8
    C13(12)   R0        7
    C13(12)   R1        1
    C13(12)   R2        -7
    C13(12)   R3        3
    C13(12)   R5        18
    C13(12)   R9        3
    C13(12)   R10       9
    C13(12)   R13       15
    C13(12)   R14       11
    C13(12)   R16       5
    C13(12)   R17       -1
    C13(12)   R20       3
    C14(14)   OBJ       -3
    C14(14)   R0        -9
    C14(14)   R1        3
    C14(14)   R2        -9
    C14(14)   R3        10
    C14(14)   R5        5
    C14(14)   R6        -1
    C14(14)   R8        10
    C14(14)   R9        13
    C14(14)   R10       5
    C14(14)   R11       1
    C14(14)   R12       13
    C14(14)   R15       17
    C14(14)   R17       19
    C14(14)   R20       3
    C15(11)   OBJ       -2
    C15(11)   R0        4
    C15(11)   R1        -9
    C15(11)   R2        9
    C15(11)   R6        9
    C15(11)   R7        16
    C15(11)   R10       13
    C15(11)   R13       14
    C15(11)   R15       5
    C15(11)   R18       18
    C15(11)   R19       1
    C15(11)   R21       4
    C16(12)   OBJ       4
    C16(12)   R0        -10
    C16(12)   R1        5
    C16(12)   R2        -8
    C16(12)   R4        10
    C16(12)   R9        4
    C16(12)   R11       1
    C16(12)   R13       13
    C16(12)   R14       12
    C16(12)   R15       8
    C16(12)   R16       12
    C16(12)   R20       17
    C16(12)   R21       17
    C17(17)   OBJ       8
    C17(17)   R0        -7
    C17(17)   R1        -1
    C17(17)   R2        -5
    C17(17)   R4        13
    C17(17)   R5        2
    C17(17)   R7        7
    C17(17)   R10       19
    C17(17)   R11       9
    C17(17)   R12       7
    C17(17)   R13       13
    C17(17)   R14       13
    C17(17)   R15       16
    C17(17)   R16       4
    C17(17)   R17       1
    C17(17)   R18       10
    C17(17)   R19       16
    C17(17)   R21       3
    C18(11)   OBJ       -8
    C18(11)   R0        -3
    C18(11)   R2        -1
    C18(11)   R6        2
    C18(11)   R8        7
    C18(11)   R9        -1
    C18(11)   R10       4
    C18(11)   R11       9
    C18(11)   R15       2
    C18(11)   R18       7
    C18(11)   R19       -1
    C18(11)   R20       16
    C19(13)   OBJ       4
    C19(13)   R0        -4
    C19(13)   R1        9
    C19(13)   R2        8
    C19(13)   R3        12
    C19(13)   R4        18
    C19(13)   R8        6
    C19(13)   R9        14
    C19(13)   R14       2
    C19(13)   R15       15
    C19(13)   R16       14
    C19(13)   R19       18
    C19(13)   R20       3
    C19(13)   R21       12
    C20(1)    R3        1
    C21(1)    R4        1
    C22(1)    R5        1
    C23(1)    R6        1
    C24(1)    R7        1
    C25(1)    R8        1
    C26(1)    R9        1
    C27(1)    R10       1
    C28(1)    R11       1
    C29(1)    R12       1
    C30(1)    R13       1
    C31(1)    R14       1
    C32(1)    R15       1
    C33(1)    R16       1
    C34(1)    R17       1
    C35(1)    R18       1
    C36(1)    R19       1
    C37(1)    R20       1
    C38(1)    R21       1
    C39(1)    R22       1
RHS
    RHS1      R0        2.2637611520558573e+02
    RHS1      R1        -1.0438343677269202e+02
    RHS1      R2        1.6755585725368505e+02
    RHS1      R3        86
    RHS1      R4        86
    RHS1      R5        62
    RHS1      R6        54
    RHS1      R7        93
    RHS1      R8        57
    RHS1      R9        65
    RHS1      R10       70
    RHS1      R11       70
    RHS1      R12       51
    RHS1      R13       78
    RHS1      R14       99
    RHS1      R15       87
    RHS1      R16       66
    RHS1      R17       68
    RHS1      R18       86
    RHS1      R19       80
    RHS1      R20       93
    RHS1      R21       89
    RHS1      R22       2
BOUNDS
 UP BND1      I0(9)     1
 UP BND1      I1(9)     1
 UP BND1      I2(10)    1
 UP BND1      I3(6)     1
 UP BND1      I4(7)     1
 UP BND1      I5(8)     1
 UP BND1      I6(9)     1
 UP BND1      I7(8)     1
ENDATA
